18026 16801 1 2 3 5 6 7 8 9 12 14 15 16 18 21 22 23 24 26 27 29 30 32 33 34 39 40 42 43 44 45 48 49 51 52 53 54 55 56 58 61 63 65 66 67 68 69 70 71 73 74 75 76 77 78 79 80 81 83 90 92 93 94 95 98 99 102 106 107 108 109 110 111 112 118 122 126 128 129 130 132 133 134 135 136 137 138 139 141 142 143 147 148 149 151 152 153 155 159 160 161 165 167 168 169 171 174 177 178 180 181 183 184 185 187 188 189 190 192 193 194 196 197 198 200 204 207 209 210 211 213 214 215 220 221 222 224 225 226 227 228 232 234 235 237 239 240 241 243 244 246 247 248 251 252 253 255 256 257 258 260 261 262 263 265 266 268 269 272 274 276 280 281 282 284 285 287 288 289 290 291 292 296 299 302 304 306 307 308 309 312 315 316 317 319 322 323 324 326 327 328 329 330 331 332 333 334 336 337 338 339 340 341 342 343 344 345 346 347 350 351 352 353 354 356 357 358 359 360 361 363 364 367 368 369 370 372 373 375 377 380 381 382 383 384 385 388 390 392 393 394 395 396 398 399 400 401 402 405 407 409 410 411 412 414 415 416 417 418 422 423 425 426 427 428 430 431 434 437 438 439 441 442 443 444 446 447 448 450 451 452 453 455 457 459 460 461 462 463 464 467 469 470 471 472 474 475 476 478 480 481 483 484 487 490 493 496 497 498 499 500 